16 32
1 2 3
1 5 3
2 3 3
2 6 2
3 4 1
3 7 3
4 8 2
5 6 3
5 9 5
6 7 5
6 10 2
7 8 1
7 11 5
8 12 5
9 10 1
9 13 4
10 11 2
10 14 5
11 12 1
11 15 4
12 16 2
13 14 5
14 15 1
15 16 1
1 13 1
2 14 4
3 15 2
4 16 3
1 4 4
5 8 4
9 12 1
13 16 2
